100
128
25
31
35
50
48
40
42
8
62
28
15
63
11
14
43
52
44
53
47
59
14
17
23
18
1
1
18
44
36
48
55
3
26
10
16
26
23
29
27
13
1
11
12
11
33
15
24
31
21
19
17
4
20
53
35
13
29
48
55
20
3
29
49
40
31
58
31
47
1
54
35
38
18
44
4
17
52
23
20
19
2
27
35
12
25
63
4
2
23
41
47
20
21
64
63
32
30
46
25
51